HFSDDW
15	4	2
0	81	1	58
0	65	1	30
0	5	1	14
0	83	1	98
0	65	1	35
0	96	1	93
0	16	1	10
0	93	1	67
0	28	1	87
0	79	1	31
0	72	1	64
0	93	1	88
0	27	1	21
0	21	1	94
0	49	1	23
LBCmax: 453
RELDUE
-1	438	4	8
-1	177	4	9
-1	163	1	9
-1	465	4	3
-1	180	6	3
-1	496	2	6
-1	72	7	1
-1	355	8	9
-1	428	9	5
-1	115	4	5
-1	153	7	7
-1	475	3	8
-1	416	9	6
-1	69	6	1
-1	248	6	1
DDW
403	473
161	193
148	178
442	488
164	196
476	516
66	78
351	359
407	449
110	120
145	161
428	522
387	445
64	74
243	253
